NAME : XML100_3155_17
DIMENSION : 101
NB_CLUSTERS : 3
CLUSTERING_ALG : KMedoids
CLUSTERING_PARAMS : k(2)
CLUSTERS
1 0
2 2 3 4 6 7 9 11 13 17 23 34 39 42 43 44 45 46 49 51 52 53 54 56 58 59 60 61 62 64 67 68 70 71 73 76 77 79 82 83 89 91 95 97 98 99 100
3 1 5 8 10 12 14 15 16 18 19 20 21 22 24 25 26 27 28 29 30 31 32 33 35 36 37 38 40 41 47 48 50 55 57 63 65 66 69 72 74 75 78 80 81 84 85 86 87 88 90 92 93 94 96
EOF